letting n =  10
letting blocks =  [[1, 2], [2, 1], [2, 4], [2, 7], [2, 9], [4, 1], [4, 8], [5, 6], [5, 8], [5, 9], [6, 1], [6, 2], [6, 4], [6, 8], [6, 9], [8, 1], [8, 7], [8, 10], [9, 5], [9, 9], [9, 10], [10, 7]]
